# Solution for model GasLib-40
# Objective value = 1.0529307291311078e+01
loadshed[innode_1] 0
loadshed[innode_2] 0
loadshed[innode_3] 0
loadshed[innode_4] 0
loadshed[innode_5] 0
loadshed[innode_6] 0
loadshed[innode_7] 0
loadshed[innode_8] 0
loadshed[source_1] -2.1499360233796794e-01
loadshed[source_2] -4.4682759338260825e-02
loadshed[source_3] 3.2627949147839075e-01
loadshed[sink_1] 0
loadshed[sink_2] 0
loadshed[sink_3] 0
loadshed[sink_4] 0
loadshed[sink_5] 0
loadshed[sink_6] 0
loadshed[sink_7] 0
loadshed[sink_8] 0
loadshed[sink_9] 0
loadshed[sink_10] 0
loadshed[sink_11] 0
loadshed[sink_12] 0.643830254755327
loadshed[sink_13] 0
loadshed[sink_14] 0
loadshed[sink_15] 0
loadshed[sink_16] 0
loadshed[sink_17] 0
loadshed[sink_18] 0
loadshed[sink_19] 0
loadshed[sink_20] 0
loadshed[sink_21] 0
loadshed[sink_22] 0
loadshed[sink_23] 0
loadshed[sink_24] 0
loadshed[sink_25] 0
loadshed[sink_26] 0
loadshed[sink_27] 0
loadshed[sink_28] 0
loadshed[sink_29] 0
flow[source_1,sink_3] 1.9207867609183222e+02
flow[innode_1,sink_16] 1.6354166666666970e+01
flow[innode_6,sink_13] 7.9705043299132541e+00
flow[sink_13,sink_14] -8.3836623367534138e+00
flow[sink_14,sink_10] -2.4737829003420082e+01
flow[sink_25,sink_26] 1.6903989700796095e+02
flow[sink_26,sink_9] 1.2791137424627532e+02
flow[sink_9,sink_18] 1.1155720757960864e+02
flow[sink_26,sink_4] 2.4774356095018987e+01
flow[sink_4,sink_20] 8.42018942835232
flow[sink_18,sink_6] 9.5203040912941972e+01
flow[sink_25,innode_8] -1.5937034275849587e+02
flow[sink_6,sink_7] 4.6140540912941105e+01
flow[sink_6,sink_22] 3.2708333333333641e+01
flow[sink_7,sink_24] 3.8533192708688929e+01
flow[sink_22,sink_1] 1.6354166666666970e+01
flow[sink_24,sink_21] 2.2179026042022258e+01
flow[sink_21,sink_12] 5.8248593753555911e+00
flow[sink_7,sink_5] -8.7468184624137137e+00
flow[sink_5,sink_17] -25.1009851290803
flow[sink_17,sink_4] 0
flow[sink_17,sink_8] -4.1455151795746872e+01
flow[sink_3,sink_23] 16.3541666666697
flow[sink_8,sink_20] -5.7809318462413536e+01
flow[sink_25,sink_20] 6.5743295700727913e+01
flow[sink_25,sink_15] -9.9737520946773145e+01
flow[sink_15,sink_29] -6.4498805172650947e+01
flow[sink_29,sink_28] 1.6354166666667879e+01
flow[sink_29,sink_2] 6.7947049107455541e+01
flow[sink_2,sink_15] 5.1592882440788877e+01
flow[sink_29,innode_7] -1.6515418761344102e+02
flow[innode_4,sink_19] 90.1544956700872
flow[sink_19,innode_3] 3.6014249042649780e+01
flow[innode_4,innode_5] 1.6354166666679703e+01
flow[sink_27,innode_5] -1.6354166666679703e+01
flow[sink_27,sink_19] 0
flow[sink_10,sink_11] 3.2708333333333641e+01
flow[sink_10,innode_2] -3.7786079960770607e+01
flow[sink_10,innode_3] -3.6014249042649780e+01
flow[innode_6,sink_25] -7.9705043299132541e+00
flow[sink_11,innode_1] 1.6354166666666970e+01
flow[sink_19,innode_2] 3.7786079960770607e+01
flow[source_3,innode_4] 1.0650866233676690e+02
flow[source_2,innode_7] 1.6515418761344102e+02
flow[sink_3,innode_8] 1.5937034275849587e+02
pressure[innode_1] 7.5212009970288818e+01
pressure[innode_2] 7.7360861665440538e+01
pressure[innode_3] 7.7281112189106878e+01
pressure[innode_4] 81.01325
pressure[innode_5] 8.1002000741808772e+01
pressure[innode_6] 7.4222583482048279e+01
pressure[innode_7] 81.01325
pressure[innode_8] 8.0371204362538890e+01
pressure[source_1] 81.01325
pressure[source_2] 81.01325
pressure[source_3] 81.01325
pressure[sink_1] 4.5981622401236329e+01
pressure[sink_2] 7.4874847035339286e+01
pressure[sink_3] 8.0371204362538890e+01
pressure[sink_4] 5.9167327054587268e+01
pressure[sink_5] 5.1087033765589027e+01
pressure[sink_6] 48.0827000116237
pressure[sink_7] 4.7449300367292572e+01
pressure[sink_8] 5.4521086297663345e+01
pressure[sink_9] 5.4661376928595026e+01
pressure[sink_10] 7.5363711277892364e+01
pressure[sink_11] 7.5212009970288818e+01
pressure[sink_12] 1.0132499999999998e+00
pressure[sink_13] 7.4178643423672483e+01
pressure[sink_14] 7.4193646701554229e+01
pressure[sink_15] 7.4706407645058249e+01
pressure[sink_16] 7.4190360135471138e+01
pressure[sink_17] 5.2956875722573777e+01
pressure[sink_18] 5.0624904660702988e+01
pressure[sink_19] 7.7360861665440538e+01
pressure[sink_20] 58.5495828063793
pressure[sink_21] 3.0860537615469110e+00
pressure[sink_22] 4.7045391543591336e+01
pressure[sink_23] 8.0206486350879089e+01
pressure[sink_24] 3.3316658681895026e+00
pressure[sink_25] 7.4222583482048279e+01
pressure[sink_26] 6.2317202807403923e+01
pressure[sink_27] 8.0866291377726043e+01
pressure[sink_28] 7.6300740198509914e+01
pressure[sink_29] 76.5960224721271
interdiction[source_1,sink_3] 0
interdiction[innode_1,sink_16] 0
interdiction[innode_6,sink_13] 0
interdiction[sink_13,sink_14] 0
interdiction[sink_14,sink_10] 0
interdiction[sink_25,sink_26] 0
interdiction[sink_26,sink_9] 0
interdiction[sink_9,sink_18] 0
interdiction[sink_26,sink_4] 0
interdiction[sink_4,sink_20] 0
interdiction[sink_18,sink_6] 0
interdiction[sink_25,innode_8] 0
interdiction[sink_6,sink_7] 0
interdiction[sink_6,sink_22] 0
interdiction[sink_7,sink_24] 0
interdiction[sink_22,sink_1] 0
interdiction[sink_24,sink_21] 0
interdiction[sink_21,sink_12] 0
interdiction[sink_7,sink_5] 0
interdiction[sink_5,sink_17] 0
interdiction[sink_17,sink_4] 1
interdiction[sink_17,sink_8] 0
interdiction[sink_3,sink_23] 0
interdiction[sink_8,sink_20] 0
interdiction[sink_25,sink_20] 0
interdiction[sink_25,sink_15] 0
interdiction[sink_15,sink_29] 0
interdiction[sink_29,sink_28] 0
interdiction[sink_29,sink_2] 0
interdiction[sink_2,sink_15] 0
interdiction[sink_29,innode_7] 0
interdiction[innode_4,sink_19] 0
interdiction[sink_19,innode_3] 0
interdiction[innode_4,innode_5] 0
interdiction[sink_27,innode_5] 0
interdiction[sink_27,sink_19] 1
interdiction[sink_10,sink_11] 0
interdiction[sink_10,innode_2] 0
interdiction[sink_10,innode_3] 0
interdiction[innode_6,sink_25] 0
interdiction[sink_11,innode_1] 0
interdiction[sink_19,innode_2] 0
interdiction[source_3,innode_4] 0
interdiction[source_2,innode_7] 0
interdiction[sink_3,innode_8] 0
WCcheckFlow[source_1,sink_3] 39
WCcheckFlow[innode_1,sink_16] 1
WCcheckFlow[innode_6,sink_13] 13
WCcheckFlow[sink_13,sink_14] 12
WCcheckFlow[sink_14,sink_10] 11
WCcheckFlow[sink_25,sink_26] 15
WCcheckFlow[sink_26,sink_9] 12
WCcheckFlow[sink_9,sink_18] 11
WCcheckFlow[sink_26,sink_4] 2
WCcheckFlow[sink_4,sink_20] 1
WCcheckFlow[sink_18,sink_6] 10
WCcheckFlow[sink_25,innode_8] -36
WCcheckFlow[sink_6,sink_7] 7
WCcheckFlow[sink_6,sink_22] 2
WCcheckFlow[sink_7,sink_24] 3
WCcheckFlow[sink_22,sink_1] 1
WCcheckFlow[sink_24,sink_21] 2
WCcheckFlow[sink_21,sink_12] 1
WCcheckFlow[sink_7,sink_5] 3
WCcheckFlow[sink_5,sink_17] 2
WCcheckFlow[sink_17,sink_4] 0
WCcheckFlow[sink_17,sink_8] 1
WCcheckFlow[sink_3,sink_23] 1
WCcheckFlow[sink_8,sink_20] 0
WCcheckFlow[sink_25,sink_20] 0
WCcheckFlow[sink_25,sink_15] 6
WCcheckFlow[sink_15,sink_29] 5
WCcheckFlow[sink_29,sink_28] 1
WCcheckFlow[sink_29,sink_2] 1
WCcheckFlow[sink_2,sink_15] 0
WCcheckFlow[sink_29,innode_7] 2
WCcheckFlow[innode_4,sink_19] -4
WCcheckFlow[sink_19,innode_3] -5
WCcheckFlow[innode_4,innode_5] 2
WCcheckFlow[sink_27,innode_5] -1
WCcheckFlow[sink_27,sink_19] 0
WCcheckFlow[sink_10,sink_11] 3
WCcheckFlow[sink_10,innode_2] 1
WCcheckFlow[sink_10,innode_3] 6
WCcheckFlow[innode_6,sink_25] -14
WCcheckFlow[sink_11,innode_1] 2
WCcheckFlow[sink_19,innode_2] 0
WCcheckFlow[source_3,innode_4] -1
WCcheckFlow[source_2,innode_7] -1
WCcheckFlow[sink_3,innode_8] 37
